n_res = 4;
rc = [ 15, 12, 12, 11 ];
n_tasks = 15;
d = [ 4, 2, 8, 1, 200, 100, 250, 250, 200, 75, 250, 1, 3, 2, 5 ];
rr = [| 0, 5, 0, 3, 0, 0, 9, 8, 4, 0, 5, 8, 9, 2, 10
      | 5, 0, 0, 5, 0, 0, 0, 1, 0, 0, 8, 5, 0, 3, 0
      | 5, 2, 4, 10, 1, 0, 10, 0, 0, 0, 9, 0, 7, 2, 0
      | 4, 0, 0, 3, 2, 2, 5, 6, 0, 2, 0, 0, 5, 0, 0 |];
suc = [ { 5 },
       { 10 },
       { 4 },
       { 8 },
       { 6, 7, 11 },
       { 8, 9, 12 },
       { 14 },
       { 13 },
       {  },
       {  },
       {  },
       { 13 },
       { 15 },
       { 15 },
       {  } ];
